p cnf 169 413
a 1 2 3 4 5 6 7 8 9 10 11 12 13 14 15 16 17 18 19 20 21 22 23 24 25 26 27 28 29 30 31 32 0
e 33 34 35 36 37 38 39 40 41 42 43 44 45 46 47 48 49 50 51 52 53 54 55 56 57 58 59 60 61 62 63 64 65 66 67 68 69 70 71 72 73 74 75 76 77 78 79 80 81 82 83 84 85 86 87 88 89 90 91 92 93 94 95 96 97 98 99 100 101 102 103 104 105 106 107 108 109 110 111 112 113 114 115 116 117 118 119 120 121 122 123 124 125 126 127 128 129 130 131 132 133 134 135 136 137 138 139 140 141 142 143 144 145 146 147 148 149 150 151 152 153 154 155 156 157 158 159 160 161 162 163 164 165 166 167 0
33 -1 2 -3 4 5 6 7 8 9 10 11 12 13 14 15 16 0
-33 -16 0
-33 -15 0
-33 -14 0
-33 -13 0
-33 -12 0
-33 -11 0
-33 -10 0
-33 -9 0
-33 -8 0
-33 -7 0
-33 -6 0
-33 -5 0
-33 -4 0
-33 3 0
-33 -2 0
-33 1 0
34 17 -18 -19 20 21 22 23 24 25 26 27 28 29 30 31 32 0
-34 -32 0
-34 -31 0
-34 -30 0
-34 -29 0
-34 -28 0
-34 -27 0
-34 -26 0
-34 -25 0
-34 -24 0
-34 -23 0
-34 -22 0
-34 -21 0
-34 -20 0
-34 19 0
-34 18 0
-34 -17 0
35 -33 -34 0
-35 34 0
-35 33 0
36 1 -17 0
-36 -1 0
-36 17 0
37 1 0
37 -17 0
37 -36 0
-37 -1 17 36 0
38 2 -18 0
-38 -2 0
-38 18 0
39 -18 -37 0
-39 37 0
-39 18 0
40 2 -37 0
-40 37 0
-40 -2 0
41 -40 0
41 -39 0
41 -38 0
-41 38 39 40 0
42 3 -19 0
-42 -3 0
-42 19 0
43 -19 -41 0
-43 41 0
-43 19 0
44 3 -41 0
-44 41 0
-44 -3 0
45 -44 0
45 -43 0
45 -42 0
-45 42 43 44 0
46 4 -20 0
-46 -4 0
-46 20 0
47 -20 -45 0
-47 45 0
-47 20 0
48 4 -45 0
-48 45 0
-48 -4 0
49 -48 0
49 -47 0
49 -46 0
-49 46 47 48 0
50 5 -21 0
-50 -5 0
-50 21 0
51 -21 -49 0
-51 49 0
-51 21 0
52 5 -49 0
-52 49 0
-52 -5 0
53 -52 0
53 -51 0
53 -50 0
-53 50 51 52 0
54 6 -22 0
-54 -6 0
-54 22 0
55 -22 -53 0
-55 53 0
-55 22 0
56 6 -53 0
-56 53 0
-56 -6 0
57 -56 0
57 -55 0
57 -54 0
-57 54 55 56 0
58 7 -23 0
-58 -7 0
-58 23 0
59 -23 -57 0
-59 57 0
-59 23 0
60 7 -57 0
-60 57 0
-60 -7 0
61 -60 0
61 -59 0
61 -58 0
-61 58 59 60 0
62 8 -24 0
-62 -8 0
-62 24 0
63 -24 -61 0
-63 61 0
-63 24 0
64 8 -61 0
-64 61 0
-64 -8 0
65 -64 0
65 -63 0
65 -62 0
-65 62 63 64 0
66 9 -25 0
-66 -9 0
-66 25 0
67 -25 -65 0
-67 65 0
-67 25 0
68 9 -65 0
-68 65 0
-68 -9 0
69 -68 0
69 -67 0
69 -66 0
-69 66 67 68 0
70 10 -26 0
-70 -10 0
-70 26 0
71 -26 -69 0
-71 69 0
-71 26 0
72 10 -69 0
-72 69 0
-72 -10 0
73 -72 0
73 -71 0
73 -70 0
-73 70 71 72 0
74 11 -27 0
-74 -11 0
-74 27 0
75 -27 -73 0
-75 73 0
-75 27 0
76 11 -73 0
-76 73 0
-76 -11 0
77 -76 0
77 -75 0
77 -74 0
-77 74 75 76 0
78 12 -28 0
-78 -12 0
-78 28 0
79 -28 -77 0
-79 77 0
-79 28 0
80 12 -77 0
-80 77 0
-80 -12 0
81 -80 0
81 -79 0
81 -78 0
-81 78 79 80 0
82 13 -29 0
-82 -13 0
-82 29 0
83 -29 -81 0
-83 81 0
-83 29 0
84 13 -81 0
-84 81 0
-84 -13 0
85 -84 0
85 -83 0
85 -82 0
-85 82 83 84 0
86 14 -30 0
-86 -14 0
-86 30 0
87 -30 -85 0
-87 85 0
-87 30 0
88 14 -85 0
-88 85 0
-88 -14 0
89 -88 0
89 -87 0
89 -86 0
-89 86 87 88 0
90 15 -31 0
-90 -15 0
-90 31 0
91 -31 -89 0
-91 89 0
-91 31 0
92 15 -89 0
-92 89 0
-92 -15 0
93 -92 0
93 -91 0
93 -90 0
-93 90 91 92 0
94 16 -32 0
-94 -16 0
-94 32 0
95 -32 -93 0
-95 93 0
-95 32 0
96 16 -93 0
-96 93 0
-96 -16 0
97 -96 0
97 -95 0
97 -94 0
-97 94 95 96 0
98 -16 32 0
98 16 -32 0
-98 16 32 0
-98 -16 -32 0
99 -35 0
99 -97 -98 0
99 97 98 0
-99 97 -98 0
-99 -97 98 0
101 0
-101 -99 -100 0
102 1 -17 0
102 -1 17 0
-102 1 17 0
-102 -1 -17 0
103 2 -18 0
103 -2 18 0
-103 2 18 0
-103 -2 -18 0
104 3 -19 0
104 -3 19 0
-104 3 19 0
-104 -3 -19 0
105 4 -20 0
105 -4 20 0
-105 4 20 0
-105 -4 -20 0
106 5 -21 0
106 -5 21 0
-106 5 21 0
-106 -5 -21 0
107 6 -22 0
107 -6 22 0
-107 6 22 0
-107 -6 -22 0
108 7 -23 0
108 -7 23 0
-108 7 23 0
-108 -7 -23 0
109 8 -24 0
109 -8 24 0
-109 8 24 0
-109 -8 -24 0
110 9 -25 0
110 -9 25 0
-110 9 25 0
-110 -9 -25 0
111 10 -26 0
111 -10 26 0
-111 10 26 0
-111 -10 -26 0
112 11 -27 0
112 -11 27 0
-112 11 27 0
-112 -11 -27 0
113 12 -28 0
113 -12 28 0
-113 12 28 0
-113 -12 -28 0
114 13 -29 0
114 -13 29 0
-114 13 29 0
-114 -13 -29 0
115 14 -30 0
115 -14 30 0
-115 14 30 0
-115 -14 -30 0
116 15 -31 0
116 -15 31 0
-116 15 31 0
-116 -15 -31 0
117 16 -32 0
117 -16 32 0
-117 16 32 0
-117 -16 -32 0
118 102 103 104 105 106 107 108 109 110 111 112 113 114 115 116 117 0
-118 -117 0
-118 -116 0
-118 -115 0
-118 -114 0
-118 -113 0
-118 -112 0
-118 -111 0
-118 -110 0
-118 -109 0
-118 -108 0
-118 -107 0
-118 -106 0
-118 -105 0
-118 -104 0
-118 -103 0
-118 -102 0
151 119 -135 0
151 -119 135 0
-151 119 135 0
-151 -119 -135 0
152 120 -136 0
152 -120 136 0
-152 120 136 0
-152 -120 -136 0
153 121 -137 0
153 -121 137 0
-153 121 137 0
-153 -121 -137 0
154 122 -138 0
154 -122 138 0
-154 122 138 0
-154 -122 -138 0
155 123 -139 0
155 -123 139 0
-155 123 139 0
-155 -123 -139 0
156 124 -140 0
156 -124 140 0
-156 124 140 0
-156 -124 -140 0
157 125 -141 0
157 -125 141 0
-157 125 141 0
-157 -125 -141 0
158 126 -142 0
158 -126 142 0
-158 126 142 0
-158 -126 -142 0
159 127 -143 0
159 -127 143 0
-159 127 143 0
-159 -127 -143 0
160 128 -144 0
160 -128 144 0
-160 128 144 0
-160 -128 -144 0
161 129 -145 0
161 -129 145 0
-161 129 145 0
-161 -129 -145 0
162 130 -146 0
162 -130 146 0
-162 130 146 0
-162 -130 -146 0
163 131 -147 0
163 -131 147 0
-163 131 147 0
-163 -131 -147 0
164 132 -148 0
164 -132 148 0
-164 132 148 0
-164 -132 -148 0
165 133 -149 0
165 -133 149 0
-165 133 149 0
-165 -133 -149 0
166 134 -150 0
166 -134 150 0
-166 134 150 0
-166 -134 -150 0
167 -118 0
167 151 152 153 154 155 156 157 158 159 160 161 162 163 164 165 166 0
-167 -166 0
-167 -165 0
-167 -164 0
-167 -163 0
-167 -162 0
-167 -161 0
-167 -160 0
-167 -159 0
-167 -158 0
-167 -157 0
-167 -156 0
-167 -155 0
-167 -154 0
-167 -153 0
-167 -152 0
-167 -151 0
